Version identifier: 22.1.0.0 | 2022-03-09 | 1a383f8ce
CPXPARAM_Threads                                 1
CPXPARAM_MIP_Strategy_VariableSelect             3
CPXPARAM_TimeLimit                               599.99996498400003
1 of 1 MIP starts provided solutions.
MIP start 'm1' defined initial solution with objective 200.0000.
Tried aggregator 2 times.
MIP Presolve eliminated 46 rows and 925 columns.
MIP Presolve added 36 rows and 9 columns.
MIP Presolve modified 48 coefficients.
Aggregator did 9 substitutions.
Reduced MIP has 2150 rows, 3080 columns, and 71412 nonzeros.
Reduced MIP has 3080 binaries, 0 generals, 0 SOSs, and 0 indicators.
Presolve time = 0.09 sec. (147.04 ticks)
Probing time = 0.01 sec. (12.49 ticks)
Tried aggregator 1 time.
Detecting symmetries...
MIP Presolve modified 11 coefficients.
Reduced MIP has 2150 rows, 3080 columns, and 71554 nonzeros.
Reduced MIP has 3080 binaries, 0 generals, 0 SOSs, and 0 indicators.
Presolve time = 0.06 sec. (108.83 ticks)
Probing time = 0.01 sec. (12.50 ticks)
Clique table members: 1530.
MIP emphasis: balance optimality and feasibility.
MIP search method: dynamic search.
Parallel mode: none, using 1 thread.
Root relaxation solution time = 0.03 sec. (30.53 ticks)

        Nodes                                         Cuts/
   Node  Left     Objective  IInf  Best Integer    Best Bound    ItCnt     Gap

*     0+    0                          200.0000    47586.0000              --- 
      0     0      308.0000    77      200.0000      308.0000      542   54.00%
*     0+    0                          308.0000      308.0000             0.00%
      0     0        cutoff            308.0000      308.0000      542    0.00%
Elapsed time = 0.31 sec. (410.65 ticks, tree = 0.01 MB, solutions = 2)

Root node processing (before b&c):
  Real time             =    0.31 sec. (410.81 ticks)
Sequential b&c:
  Real time             =    0.00 sec. (0.00 ticks)
                          ------------
Total (root+branch&cut) =    0.31 sec. (410.81 ticks)
Primal:	308
Dual:	308
Status:	Optimal
Time:	0.34
Sequence:
	3
	4
	6
	9
	9
	9
	6
	9
	4
	9
	6
	9
	9
	5
	9
	6
	9
	2
	9
	4
	6
	9
	5
	9
	5
	9
	10
	9
	6
	2
	9
	9
	6
	9
	5
	9
	9
	6
	9
	5
	9
	6
	9
	9
	3
	9
	6
	9
	9
	9
	6
	9
	5
	4
	9
	5
	9
	9
	9
	9
	6
	9
	9
	9
	6
	9
	9
	4
	6
	9
	5
	9
	6
	9
	5
	9
	6
	9
	5
	9
	4
	2
	4
	6
	0
	4
	5
	0
	9
	9
	6
	0
	5
	9
	6
	0
	4
	9
	6
	4
	10
	0
	6
	4
	3
	2
	1
	9
	6
	0
	4
	5
	9
	4
	6
	0
	9
	9
	0
	9
	6
	9
	9
	9
	5
	9
	6
	0
	9
	9
	6
	9
	5
	9
	0
	5
	4
	9
	6
	9
	5
	9
	9
	6
	9
	9
	9
	9
	6
	9
	9
	9
	9
	6
	9
	5
	9
	9
	5
	9
	5
	9
	5
	9
	5
	9
	5
	9
	6
	9
	9
	5
	2
	5
	9
	6
	9
	5
	0
	5
	9
	6
	9
	9
	2
	6
	9
	4
	9
	1
	9
	1
	0
	9
	6
	9
	0
	9
	9
	9
	6
	9
	5
	0
	4
	10
	0
	4
	6
	0
	4
	9
	0
	6
	4
	9
	4
	6
	9
	1
	4
	6
	0
	5
	9
	6
	9
	9
	0
	6
	4
	0
	1
	4
	0
	9
	6
	0
	9
	9
	6
	4
	9
	9
	5
	9
	9
	5
	9
	6
	9
	2
	9
	6
	9
	5
	4
	9
	9
	6
	4
	9
	9
	6
	9
	5
	9
	9
	5
	9
	9
	6
	9
	3
	9
	9
	6
	9
	9
	9
	9
	6
	9
	1
	9
	6
	9
	5
	2
	10
	9
	6
	4
	1
	4
	5
	0
	1
	4
	4
	1
	4
	9
	4
	1
	0
	6
	4
